RLW01
Position Depot: Center
Horizon for Depot: Large
Position of customers: Random
Distribution of the demand: Small
Width of time windows: Wide
Distribution of the service: Large

VEHICLE 
NUMBER 	 CAPACITY 
 5 	 	 69 
 
CUSTOMER
CUST NO. 	 XCOORD.  	 YCOORD. 	 DEMAND 	 READY TIME 	 DUE DATE 	 SERVICE TIME 
 0 	 	 500 	 	 500 	 	 0 	 	 0 	 	 3544 	 	 0 
  1 	 	 120 	 	 507 	 	 8 	 	 1737 	 	 2131 	 	 200 
  2 	 	 214 	 	 96 	 	 8 	 	 145 	 	 544 	 	 155 
  3 	 	 622 	 	 780 	 	 5 	 	 2636 	 	 3064 	 	 134 
  4 	 	 738 	 	 821 	 	 6 	 	 2295 	 	 2547 	 	 140 
  5 	 	 31 	 	 22 	 	 5 	 	 2421 	 	 2898 	 	 101 
  6 	 	 961 	 	 902 	 	 8 	 	 2656 	 	 2966 	 	 154 
  7 	 	 743 	 	 29 	 	 9 	 	 696 	 	 1120 	 	 163 
  8 	 	 566 	 	 238 	 	 7 	 	 789 	 	 1101 	 	 197 
  9 	 	 470 	 	 975 	 	 7 	 	 110 	 	 523 	 	 171 
  10 	 	 944 	 	 657 	 	 5 	 	 585 	 	 936 	 	 115 
  11 	 	 760 	 	 340 	 	 10 	 	 2685 	 	 3141 	 	 154 
  12 	 	 519 	 	 849 	 	 10 	 	 599 	 	 954 	 	 136 
  13 	 	 601 	 	 996 	 	 8 	 	 3086 	 	 3544 	 	 150 
  14 	 	 603 	 	 873 	 	 5 	 	 1805 	 	 2129 	 	 195 
  15 	 	 816 	 	 413 	 	 8 	 	 2578 	 	 2866 	 	 146 
  16 	 	 561 	 	 903 	 	 10 	 	 2981 	 	 3372 	 	 111 
  17 	 	 449 	 	 679 	 	 9 	 	 300 	 	 583 	 	 166 
  18 	 	 860 	 	 402 	 	 7 	 	 1897 	 	 2112 	 	 160 
  19 	 	 44 	 	 315 	 	 10 	 	 3048 	 	 3544 	 	 150 
  20 	 	 662 	 	 174 	 	 6 	 	 1899 	 	 2215 	 	 101 
  21 	 	 789 	 	 204 	 	 9 	 	 3064 	 	 3544 	 	 129 
  22 	 	 414 	 	 526 	 	 7 	 	 3049 	 	 3544 	 	 145 
  23 	 	 470 	 	 931 	 	 7 	 	 2460 	 	 2940 	 	 177 
  24 	 	 980 	 	 746 	 	 5 	 	 1340 	 	 1802 	 	 116 
  25 	 	 531 	 	 796 	 	 9 	 	 632 	 	 1050 	 	 107 
  26 	 	 492 	 	 890 	 	 7 	 	 2092 	 	 2575 	 	 125 
  27 	 	 963 	 	 516 	 	 8 	 	 1795 	 	 2177 	 	 153 
  28 	 	 354 	 	 1 	 	 9 	 	 2027 	 	 2396 	 	 158 
  29 	 	 614 	 	 28 	 	 6 	 	 2457 	 	 2747 	 	 170 
  30 	 	 598 	 	 185 	 	 5 	 	 3029 	 	 3511 	 	 132 
  31 	 	 33 	 	 861 	 	 10 	 	 407 	 	 649 	 	 102 
  32 	 	 463 	 	 14 	 	 7 	 	 853 	 	 1190 	 	 114 
  33 	 	 816 	 	 639 	 	 6 	 	 1236 	 	 1584 	 	 108 
  34 	 	 171 	 	 163 	 	 7 	 	 2017 	 	 2303 	 	 184 
  35 	 	 279 	 	 663 	 	 10 	 	 990 	 	 1422 	 	 189 
  36 	 	 329 	 	 508 	 	 8 	 	 361 	 	 573 	 	 139 
  37 	 	 395 	 	 351 	 	 8 	 	 3113 	 	 3409 	 	 133 
  38 	 	 111 	 	 259 	 	 10 	 	 1935 	 	 2242 	 	 177 
  39 	 	 442 	 	 836 	 	 5 	 	 818 	 	 1027 	 	 150 
  40 	 	 149 	 	 36 	 	 10 	 	 442 	 	 870 	 	 190 
  41 	 	 518 	 	 694 	 	 8 	 	 2075 	 	 2387 	 	 180 
  42 	 	 816 	 	 711 	 	 9 	 	 1689 	 	 2003 	 	 167 
  43 	 	 664 	 	 31 	 	 8 	 	 2517 	 	 3011 	 	 141 
  44 	 	 675 	 	 646 	 	 8 	 	 64 	 	 416 	 	 116 
  45 	 	 991 	 	 217 	 	 5 	 	 1136 	 	 1372 	 	 109 
  46 	 	 317 	 	 939 	 	 7 	 	 2905 	 	 3186 	 	 153 
  47 	 	 578 	 	 258 	 	 6 	 	 -208 	 	 279 	 	 104 
  48 	 	 604 	 	 839 	 	 6 	 	 2117 	 	 2552 	 	 121 
  49 	 	 847 	 	 888 	 	 10 	 	 2321 	 	 2781 	 	 104 
  50 	 	 387 	 	 205 	 	 7 	 	 252 	 	 557 	 	 173 
 